p cnf 60 325
1 6 11 16 21 26 31 36 41 46 51 56 0 
2 7 12 17 22 27 32 37 42 47 52 57 0 
3 8 13 18 23 28 33 38 43 48 53 58 0 
4 9 14 19 24 29 34 39 44 49 54 59 0 
5 10 15 20 25 30 35 40 45 50 55 60 0 
-1 -2 0 
-1 -3 0 
-1 -4 0 
-1 -5 0 
-2 -3 0 
-2 -4 0 
-2 -5 0 
-3 -4 0 
-3 -5 0 
-4 -5 0 
-6 -7 0 
-6 -8 0 
-6 -9 0 
-6 -10 0 
-7 -8 0 
-7 -9 0 
-7 -10 0 
-8 -9 0 
-8 -10 0 
-9 -10 0 
-11 -12 0 
-11 -13 0 
-11 -14 0 
-11 -15 0 
-12 -13 0 
-12 -14 0 
-12 -15 0 
-13 -14 0 
-13 -15 0 
-14 -15 0 
-16 -17 0 
-16 -18 0 
-16 -19 0 
-16 -20 0 
-17 -18 0 
-17 -19 0 
-17 -20 0 
-18 -19 0 
-18 -20 0 
-19 -20 0 
-21 -22 0 
-21 -23 0 
-21 -24 0 
-21 -25 0 
-22 -23 0 
-22 -24 0 
-22 -25 0 
-23 -24 0 
-23 -25 0 
-24 -25 0 
-26 -27 0 
-26 -28 0 
-26 -29 0 
-26 -30 0 
-27 -28 0 
-27 -29 0 
-27 -30 0 
-28 -29 0 
-28 -30 0 
-29 -30 0 
-31 -32 0 
-31 -33 0 
-31 -34 0 
-31 -35 0 
-32 -33 0 
-32 -34 0 
-32 -35 0 
-33 -34 0 
-33 -35 0 
-34 -35 0 
-36 -37 0 
-36 -38 0 
-36 -39 0 
-36 -40 0 
-37 -38 0 
-37 -39 0 
-37 -40 0 
-38 -39 0 
-38 -40 0 
-39 -40 0 
-41 -42 0 
-41 -43 0 
-41 -44 0 
-41 -45 0 
-42 -43 0 
-42 -44 0 
-42 -45 0 
-43 -44 0 
-43 -45 0 
-44 -45 0 
-46 -47 0 
-46 -48 0 
-46 -49 0 
-46 -50 0 
-47 -48 0 
-47 -49 0 
-47 -50 0 
-48 -49 0 
-48 -50 0 
-49 -50 0 
-51 -52 0 
-51 -53 0 
-51 -54 0 
-51 -55 0 
-52 -53 0 
-52 -54 0 
-52 -55 0 
-53 -54 0 
-53 -55 0 
-54 -55 0 
-56 -57 0 
-56 -58 0 
-56 -59 0 
-56 -60 0 
-57 -58 0 
-57 -59 0 
-57 -60 0 
-58 -59 0 
-58 -60 0 
-59 -60 0 
-1 -16 0 
-1 -17 0 
-1 -18 0 
-1 -19 0 
-1 -20 0 
-2 -16 0 
-2 -17 0 
-2 -18 0 
-2 -19 0 
-2 -20 0 
-3 -16 0 
-3 -17 0 
-3 -18 0 
-3 -19 0 
-3 -20 0 
-4 -16 0 
-4 -17 0 
-4 -18 0 
-4 -19 0 
-4 -20 0 
-5 -16 0 
-5 -17 0 
-5 -18 0 
-5 -19 0 
-5 -20 0 
-1 -51 0 
-1 -52 0 
-1 -53 0 
-1 -54 0 
-1 -55 0 
-2 -51 0 
-2 -52 0 
-2 -53 0 
-2 -54 0 
-2 -55 0 
-3 -51 0 
-3 -52 0 
-3 -53 0 
-3 -54 0 
-3 -55 0 
-4 -51 0 
-4 -52 0 
-4 -53 0 
-4 -54 0 
-4 -55 0 
-5 -51 0 
-5 -52 0 
-5 -53 0 
-5 -54 0 
-5 -55 0 
-6 -11 0 
-6 -12 0 
-6 -13 0 
-6 -14 0 
-6 -15 0 
-7 -11 0 
-7 -12 0 
-7 -13 0 
-7 -14 0 
-7 -15 0 
-8 -11 0 
-8 -12 0 
-8 -13 0 
-8 -14 0 
-8 -15 0 
-9 -11 0 
-9 -12 0 
-9 -13 0 
-9 -14 0 
-9 -15 0 
-10 -11 0 
-10 -12 0 
-10 -13 0 
-10 -14 0 
-10 -15 0 
-11 -46 0 
-11 -47 0 
-11 -48 0 
-11 -49 0 
-11 -50 0 
-12 -46 0 
-12 -47 0 
-12 -48 0 
-12 -49 0 
-12 -50 0 
-13 -46 0 
-13 -47 0 
-13 -48 0 
-13 -49 0 
-13 -50 0 
-14 -46 0 
-14 -47 0 
-14 -48 0 
-14 -49 0 
-14 -50 0 
-15 -46 0 
-15 -47 0 
-15 -48 0 
-15 -49 0 
-15 -50 0 
-26 -41 0 
-26 -42 0 
-26 -43 0 
-26 -44 0 
-26 -45 0 
-27 -41 0 
-27 -42 0 
-27 -43 0 
-27 -44 0 
-27 -45 0 
-28 -41 0 
-28 -42 0 
-28 -43 0 
-28 -44 0 
-28 -45 0 
-29 -41 0 
-29 -42 0 
-29 -43 0 
-29 -44 0 
-29 -45 0 
-30 -41 0 
-30 -42 0 
-30 -43 0 
-30 -44 0 
-30 -45 0 
-31 -41 0 
-31 -42 0 
-31 -43 0 
-31 -44 0 
-31 -45 0 
-32 -41 0 
-32 -42 0 
-32 -43 0 
-32 -44 0 
-32 -45 0 
-33 -41 0 
-33 -42 0 
-33 -43 0 
-33 -44 0 
-33 -45 0 
-34 -41 0 
-34 -42 0 
-34 -43 0 
-34 -44 0 
-34 -45 0 
-35 -41 0 
-35 -42 0 
-35 -43 0 
-35 -44 0 
-35 -45 0 
-46 -56 0 
-46 -57 0 
-46 -58 0 
-46 -59 0 
-46 -60 0 
-47 -56 0 
-47 -57 0 
-47 -58 0 
-47 -59 0 
-47 -60 0 
-48 -56 0 
-48 -57 0 
-48 -58 0 
-48 -59 0 
-48 -60 0 
-49 -56 0 
-49 -57 0 
-49 -58 0 
-49 -59 0 
-49 -60 0 
-50 -56 0 
-50 -57 0 
-50 -58 0 
-50 -59 0 
-50 -60 0 
-51 -56 0 
-51 -57 0 
-51 -58 0 
-51 -59 0 
-51 -60 0 
-52 -56 0 
-52 -57 0 
-52 -58 0 
-52 -59 0 
-52 -60 0 
-53 -56 0 
-53 -57 0 
-53 -58 0 
-53 -59 0 
-53 -60 0 
-54 -56 0 
-54 -57 0 
-54 -58 0 
-54 -59 0 
-54 -60 0 
-55 -56 0 
-55 -57 0 
-55 -58 0 
-55 -59 0 
-55 -60 0 
